000 -99 000 000 -99 000 -99 000 -99 -99 -99 -99 000 000 -99 -99 -99 -99 -99 000 -99 -99 -99 -99 000 000 000 -99 -99 -99 000
000 000 000 000 000 000 000 000 -99 -99 -99 -99 -99 -99 -99 000 -99 -99 -99 000 000 -99 -99 -99 -99 000 000 -99 -99 008 000
-99 000 000 000 000 000 -99 000 000 -99 -99 -99 -99 -99 -99 000 -99 -99 -99 -99 000 000 -99 -99 -99 000 000 003 003 006 002
000 000 000 000 000 000 000 000 000 000 -99 -99 -99 -99 000 000 000 -99 -99 -99 000 000 000 000 000 001 000 000 000 -99 000
000 000 000 000 000 000 000 000 000 000 -99 -99 000 -99 -99 000 000 -99 -99 -99 000 000 000 000 000 000 000 000 000 -99 -99
000 000 000 000 000 000 000 000 000 000 -99 -99 000 000 -99 000 000 000 -99 -99 000 000 000 000 000 000 -99 -99 -99 -99 000
000 000 000 000 000 -99 -99 000 000 -99 -99 -99 -99 000 -99 -99 000 000 -99 -99 -99 -99 -99 000 000 000 -99 -99 -99 -99 -99
000 000 000 000 000 -99 -99 -99 000 -99 -99 -99 -99 000 -99 -99 000 000 -99 -99 -99 -99 -99 000 000 -99 -99 -99 -99 -99 000
000 000 000 000 000 -99 -99 -99 000 000 000 -99 -99 -99 -99 -99 000 000 -99 -99 000 -99 -99 -99 000 -99 -99 -99 -99 -99 000
000 000 000 000 000 -99 -99 000 000 000 000 000 -99 -99 -99 -99 -99 000 000 000 000 -99 -99 -99 000 000 -99 000 000 000 -99
000 000 000 000 000 000 000 000 000 000 000 000 000 -99 -99 -99 000 000 000 000 000 000 -99 -99 000 000 000 000 000 000 000
000 000 000 000 000 000 000 000 000 000 000 000 000 -99 -99 000 000 000 000 000 000 000 -99 -99 000 000 000 000 000 000 000
000 000 000 000 000 000 000 000 000 000 000 000 000 -99 -99 000 000 000 000 000 000 -99 -99 -99 000 000 000 000 000 000 000
000 000 000 000 000 000 000 000 000 000 000 000 000 -99 -99 -99 -99 000 000 000 -99 000 -99 -99 000 000 000 000 000 000 -99
000 000 000 000 000 000 000 000 000 000 000 000 000 000 000 000 000 000 000 000 -99 -99 -99 -99 000 000 000 000 000 000 -99
000 000 000 000 000 000 000 000 000 000 000 001 001 000 000 000 000 000 000 000 -99 -99 -99 000 000 000 000 000 000 000 -99
000 001 001 001 001 000 001 000 001 001 001 001 002 001 000 000 000 004 001 000 000 000 000 000 000 000 000 000 000 000 000
001 001 001 001 002 001 001 002 002 002 003 008 002 001 001 001 001 010 002 000 000 000 000 000 000 000 000 000 000 000 000
001 001 000 001 002 002 001 002 001 003 002 006 003 001 001 001 001 008 002 000 000 000 000 001 000 000 000 000 -99 000 000
002 002 000 000 002 007 003 003 008 006 011 014 004 001 000 001 000 002 001 000 001 001 001 -99 -99 000 001 -99 -99 000 000
002 004 004 002 006 012 004 005 024 014 013 020 007 001 001 001 000 001 002 001 001 001 001 -99 -99 -99 -99 -99 -99 -99 -99
004 004 005 003 006 012 005 009 028 019 016 016 006 002 001 001 001 001 001 001 001 000 001 -99 -99 -99 -99 -99 -99 -99 -99
006 004 006 002 004 011 010 016 019 021 011 009 003 003 002 001 001 000 000 001 001 000 002 -99 -99 -99 -99 -99 -99 -99 -99
007 005 008 004 002 008 012 008 016 021 005 003 003 003 002 003 001 001 001 001 001 000 001 -99 -99 -99 -99 061 042 046 007
011 009 012 011 004 004 006 003 010 015 008 005 002 006 011 004 003 001 001 000 000 001 003 -99 -99 -99 -99 061 042 046 007
031 018 021 020 011 018 008 014 028 033 012 004 001 008 012 007 006 001 000 000 000 002 009 -99 -99 -99 031 100 064 069 020
035 024 013 015 023 025 022 036 033 029 008 001 000 008 006 015 015 001 000 000 000 002 004 011 -99 -99 037 055 066 062 016
025 024 017 019 021 034 025 031 014 008 002 001 004 009 008 030 006 001 001 001 001 005 007 010 010 019 035 056 056 043 015
016 019 026 018 018 021 025 024 005 004 006 002 020 007 011 025 004 003 004 002 003 012 012 016 021 012 034 039 048 042 031
009 010 017 028 017 015 028 048 023 006 007 004 008 003 012 006 003 006 006 003 005 015 018 025 029 018 026 025 029 054 056
002 003 010 013 018 009 020 030 022 010 007 006 005 003 007 006 005 010 011 005 009 012 029 026 039 039 018 022 021 089 118
001 001 004 008 005 004 004 013 010 010 007 006 002 003 006 005 012 019 017 015 019 037 039 041 056 033 012 023 021 052 085
002 001 004 003 006 013 002 003 006 011 005 010 003 003 015 007 018 018 010 007 031 040 051 057 064 039 026 050 030 054 072
002 003 007 006 011 021 006 011 019 018 015 023 009 012 018 016 029 025 012 018 060 040 040 052 034 026 030 044 032 032 064
002 003 005 009 006 016 024 017 020 017 017 028 023 019 026 042 040 024 009 011 028 025 023 030 027 024 028 030 034 020 035
002 004 005 008 004 004 016 008 006 020 038 031 020 018 021 022 016 015 011 017 046 022 009 009 008 010 018 018 017 010 017
003 003 008 004 001 002 002 003 004 005 021 010 008 012 011 012 008 007 015 026 029 015 005 003 006 008 007 009 010 003 006
001 002 003 002 001 001 002 002 002 004 003 005 002 002 002 005 004 005 016 029 023 008 005 005 005 004 003 004 002 003 005
000 001 001 002 001 001 001 002 001 001 001 001 001 001 001 002 001 003 009 010 007 005 006 003 003 002 002 001 001 002 005
000 000 000 001 001 001 001 002 001 001 001 000 001 001 001 001 001 002 005 002 001 001 001 002 001 001 001 001 001 002 003
000 000 000 000 001 001 002 001 002 002 001 000 000 000 001 000 000 001 001 001 001 001 001 001 001 000 000 001 000 003 004
000 000 000 000 000 000 000 000 001 002 001 001 000 001 000 000 001 001 001 002 001 002 001 001 000 001 000 001 001 001 004
000 000 000 000 000 000 000 000 000 001 001 000 000 001 000 000 000 001 001 002 002 002 002 000 000 000 000 001 001 002 003
000 000 000 000 000 000 000 000 000 000 000 000 000 001 001 001 001 001 002 001 001 002 001 001 000 001 000 000 001 002 003
000 000 000 000 000 000 000 000 000 000 000 000 001 000 000 001 001 001 002 005 002 002 000 000 002 001 000 000 001 -99 003
000 000 -99 000 000 000 000 000 000 000 000 000 001 000 000 001 001 001 003 002 003 002 001 001 004 001 000 001 -99 -99 001
000 -99 000 000 000 000 000 000 000 000 000 000 001 001 000 000 001 001 002 004 005 003 002 003 005 001 001 -99 -99 000 001
000 -99 000 000 000 000 000 000 000 000 000 000 000 001 000 000 001 002 005 007 019 005 003 002 001 001 -99 -99 000 000 -99
-99 000 000 000 000 000 000 000 000 000 000 000 000 000 000 000 001 001 007 012 012 007 004 002 000 000 001 000 000 -99 -99
-99 -99 000 000 000 000 000 000 000 000 000 000 000 000 000 000 001 004 010 011 007 010 015 008 001 000 001 000 -99 -99 -99
-99 000 000 000 000 000 000 000 000 000 000 000 000 000 000 000 003 008 006 002 010 019 026 013 001 000 001 000 -99 -99 -99
-99 000 000 000 000 000 000 000 000 000 000 000 000 000 000 001 003 007 005 002 009 012 021 010 000 000 000 000 -99 -99 -99
000 000 000 000 000 000 000 -99 -99 -99 000 000 000 000 001 000 003 002 002 002 006 006 005 001 001 000 000 000 -99 -99 -99
-99 000 000 000 000 000 000 -99 -99 -99 -99 000 000 000 000 000 003 003 001 002 000 002 002 002 003 001 000 -99 -99 -99 -99
-99 000 000 000 000 -99 -99 -99 -99 -99 -99 000 000 000 000 000 001 000 000 000 000 001 001 006 004 000 000 -99 -99 -99 -99
